2
150 2
52
32 1 2
33 1 1
35 1 3
36 1 1
38 1 1
39 1 4
40 1 2
41 1 2
42 1 3
43 1 4
44 1 3
46 1 2
48 1 2
49 1 1
50 1 1
51 1 1
53 1 3
54 1 1
55 1 1
56 1 2
58 1 3
59 1 1
61 1 2
63 1 4
64 1 2
65 1 1
67 1 1
68 1 1
69 1 3
70 1 1
71 1 1
72 1 1
73 1 1
74 1 3
75 1 4
80 1 1
81 1 3
82 1 3
84 1 3
85 1 2
86 1 1
88 1 2
89 1 1
90 1 2
91 1 1
93 1 2
94 1 3
95 1 1
97 1 2
98 1 1
99 1 1
100 1 2
